Minimize
  - 21 y_0 - 9 y_1 - 13 y_2 - 13 y_3 - 21 y_4 - 18 y_5 - 22 y_6 - 22 y_7
   - 21 y_8 - 6 y_9 - 16 y_10 - 14 y_11 - 19 y_12 - 12 y_13 - 10 y_14
   - 11 y_15 - 14 y_16 - 3 y_17 - 18 y_18 - 6 y_19 - 10 y_20 - 17 y_21
   - 5 y_22 - 7 y_23 - 7 y_24 - 24 y_25 - 18 y_26 - 16 y_27 - 14 y_28
   - 3 y_29 - 19 y_30 - 19 y_31 - 20 y_32 - 10 y_33 - 9 y_34 - 16 y_35
   - 13 y_36 - 5 y_37 - 5 y_38 - 24 y_39 - 22 y_40 - 14 y_41 - 15 y_42
   - 20 y_43 - 3 y_44 - 16 y_45 - 13 y_46 - 9 y_47 - 17 y_48 + 679 Constant
Subject To
 c_0: y_2 = 1
 c_1_0: y_0 + y_32 >= 1
 c_1_1: y_1 + y_13 + y_20 + y_24 >= 1
 c_1_2: y_2 + y_28 + y_42 + y_45 + y_46 >= 1
 c_1_3: y_3 + y_11 + y_27 + y_35 + y_41 >= 1
 c_1_4: y_4 + y_5 + y_8 + y_12 + y_21 + y_26 + y_30 + y_39 + y_40 >= 1
 c_1_5: y_4 + y_5 + y_8 + y_12 + y_21 + y_26 + y_27 + y_30 + y_35 >= 1
 c_1_6: y_6 + y_7 + y_8 + y_12 + y_43 >= 1
 c_1_7: y_6 + y_7 + y_8 + y_12 + y_43 >= 1
 c_1_8: y_4 + y_5 + y_6 + y_7 + y_8 + y_12 + y_43 >= 1
 c_1_9: y_9 + y_17 + y_24 + y_34 + y_38 + y_44 >= 1
 c_1_10: y_10 + y_11 + y_43 + y_48 >= 1
 c_1_11: y_3 + y_10 + y_11 + y_35 + y_41 + y_48 >= 1
 c_1_12: y_4 + y_5 + y_6 + y_7 + y_8 + y_12 + y_30 + y_35 + y_43 >= 1
 c_1_13: y_1 + y_13 + y_15 + y_16 + y_20 + y_33 >= 1
 c_1_14: y_14 + y_19 + y_23 + y_46 + y_47 >= 1
 c_1_15: y_13 + y_15 + y_20 + y_24 + y_33 + y_34 + y_36 >= 1
 c_1_16: y_13 + y_16 >= 1
 c_1_17: y_9 + y_17 + y_22 + y_29 + y_38 + y_44 + y_49 >= 1
 c_1_18: y_18 + y_31 >= 1
 c_1_19: y_14 + y_19 + y_22 + y_23 + y_29 + y_37 + y_47 >= 1
 c_1_20: y_1 + y_13 + y_15 + y_20 + y_24 + y_33 >= 1
 c_1_21: y_4 + y_5 + y_21 + y_26 + y_27 + y_30 + y_35 + y_41 >= 1
 c_1_22: y_17 + y_19 + y_22 + y_23 + y_29 + y_37 + y_44 + y_47 >= 1
 c_1_23: y_14 + y_19 + y_22 + y_23 + y_29 + y_37 + y_47 >= 1
 c_1_24: y_1 + y_9 + y_15 + y_20 + y_24 + y_33 + y_34 + y_38 >= 1
 c_1_25: y_25 + y_39 + y_40 >= 1
 c_1_26: y_4 + y_5 + y_21 + y_26 + y_27 + y_30 + y_35 >= 1
 c_1_27: y_3 + y_5 + y_21 + y_26 + y_27 + y_30 + y_35 + y_41 >= 1
 c_1_28: y_2 + y_28 + y_42 + y_45 + y_46 >= 1
 c_1_29: y_17 + y_19 + y_22 + y_23 + y_29 + y_37 + y_44 + y_49 >= 1
 c_1_30: y_4 + y_5 + y_12 + y_21 + y_26 + y_27 + y_30 + y_35 + y_40 >= 1
 c_1_31: y_18 + y_31 >= 1
 c_1_32: y_0 + y_32 >= 1
 c_1_33: y_13 + y_15 + y_20 + y_24 + y_33 + y_34 + y_36 >= 1
 c_1_34: y_9 + y_15 + y_24 + y_33 + y_34 + y_38 >= 1
 c_1_35: y_3 + y_5 + y_11 + y_12 + y_21 + y_26 + y_27 + y_30 + y_35 + y_41
   >= 1
 c_1_36: y_15 + y_33 + y_36 >= 1
 c_1_37: y_19 + y_22 + y_23 + y_29 + y_37 >= 1
 c_1_38: y_9 + y_17 + y_24 + y_34 + y_38 + y_44 >= 1
 c_1_39: y_4 + y_25 + y_39 + y_40 >= 1
 c_1_40: y_4 + y_25 + y_30 + y_39 + y_40 >= 1
 c_1_41: y_3 + y_11 + y_21 + y_27 + y_35 + y_41 >= 1
 c_1_42: y_2 + y_28 + y_42 + y_45 + y_46 >= 1
 c_1_43: y_6 + y_7 + y_8 + y_10 + y_12 + y_43 + y_48 >= 1
 c_1_44: y_9 + y_17 + y_22 + y_29 + y_38 + y_44 + y_49 >= 1
 c_1_45: y_2 + y_28 + y_42 + y_45 >= 1
 c_1_46: y_2 + y_14 + y_28 + y_42 + y_46 >= 1
 c_1_47: y_14 + y_19 + y_22 + y_23 + y_47 >= 1
 c_1_48: y_10 + y_11 + y_43 + y_48 >= 1
 c_1_49: y_17 + y_29 + y_44 + y_49 >= 1
Bounds
 Constant = 1
Binaries
 y_0 y_1 y_2 y_3 y_4 y_5 y_6 y_7 y_8 y_9 y_10 y_11 y_12 y_13 y_14 y_15 y_16
 y_17 y_18 y_19 y_20 y_21 y_22 y_23 y_24 y_25 y_26 y_27 y_28 y_29 y_30 y_31
 y_32 y_33 y_34 y_35 y_36 y_37 y_38 y_39 y_40 y_41 y_42 y_43 y_44 y_45 y_46
 y_47 y_48 y_49
End
